p cnf 18 59
-2 14 15 3 0
2 -3 0
2 -15 0
2 -14 0
-3 16 17 0
3 -16 0
3 -17 0
4 -14 15 3 0
-4 14 0
-4 -15 0
-4 -3 0
5 14 -15 3 0
-5 -3 0
-5 15 0
-5 -14 0
6 -14 -15 3 0
-6 14 0
-6 15 0
-6 -3 0
7 14 15 -8 0
-7 8 0
-7 -15 0
-7 -14 0
8 -16 17 0
-8 16 0
-8 -17 0
9 -14 15 -8 0
-9 14 0
-9 -15 0
-9 8 0
10 14 -15 -8 0
-10 8 0
-10 15 0
-10 -14 0
11 -14 -15 -8 0
-11 14 0
-11 15 0
-11 8 0
12 14 15 16 -17 0
-12 17 0
-12 -16 0
-12 -14 0
-12 -15 0
13 -14 15 16 -17 0
-13 17 0
-13 -16 0
-13 14 0
-13 -15 0
-18 0
2 0
-4 0
-5 0
-6 0
-7 0
-9 0
-10 0
-11 0
-12 0
-13 0

